c cksystemsgroup.github.io/unicorn
c CNF contains a total of 495 clauses.
c CNF contains a total of 119 variables.
c CNF clauses cover 1 bad states.
c Variable name mapping (17 names):
c   1: input[bit=0]
c   2: input[bit=0]
c   4: input[bit=1]
c   6: input[bit=1]
c   11: input[bit=2]
c   16: input[bit=2]
c   22: input[bit=3]
c   30: input[bit=3]
c   36: input[bit=4]
c   47: input[bit=4]
c   53: input[bit=5]
c   67: input[bit=5]
c   72: input[bit=6]
c   89: input[bit=6]
c   95: input[bit=7]
c   115: input[bit=7]
c   119: ?
p cnf 119 495
-1 -2 3 0
1 -3 0
2 -3 0
-4 -2 5 0
4 -5 0
2 -5 0
-1 -6 7 0
1 -7 0
6 -7 0
-8 0
5 7 8 -9 0
5 7 -8 9 0
5 -7 8 9 0
5 -7 -8 -9 0
-5 7 8 9 0
-5 7 -8 -9 0
-5 -7 8 -9 0
-5 -7 -8 9 0
-3 -9 10 0
3 -10 0
9 -10 0
-11 -2 12 0
11 -12 0
2 -12 0
-4 -6 13 0
4 -13 0
6 -13 0
5 7 -14 0
5 8 -14 0
-7 -8 14 0
7 8 -14 0
-5 -8 14 0
-5 -7 14 0
12 13 14 -15 0
12 13 -14 15 0
12 -13 14 15 0
12 -13 -14 -15 0
-12 13 14 15 0
-12 13 -14 -15 0
-12 -13 14 -15 0
-12 -13 -14 15 0
-1 -16 17 0
1 -17 0
16 -17 0
-18 0
15 17 18 -19 0
15 17 -18 19 0
15 -17 18 19 0
15 -17 -18 -19 0
-15 17 18 19 0
-15 17 -18 -19 0
-15 -17 18 -19 0
-15 -17 -18 19 0
-19 -20 0
19 20 0
-10 -20 21 0
10 -21 0
20 -21 0
-22 -2 23 0
22 -23 0
2 -23 0
-11 -6 24 0
11 -24 0
6 -24 0
12 13 -25 0
12 14 -25 0
-13 -14 25 0
13 14 -25 0
-12 -14 25 0
-12 -13 25 0
23 24 25 -26 0
23 24 -25 26 0
23 -24 25 26 0
23 -24 -25 -26 0
-23 24 25 26 0
-23 24 -25 -26 0
-23 -24 25 -26 0
-23 -24 -25 26 0
-4 -16 27 0
4 -27 0
16 -27 0
15 17 -28 0
15 18 -28 0
-17 -18 28 0
17 18 -28 0
-15 -18 28 0
-15 -17 28 0
26 27 28 -29 0
26 27 -28 29 0
26 -27 28 29 0
26 -27 -28 -29 0
-26 27 28 29 0
-26 27 -28 -29 0
-26 -27 28 -29 0
-26 -27 -28 29 0
-1 -30 31 0
1 -31 0
30 -31 0
-32 0
29 31 32 -33 0
29 31 -32 33 0
29 -31 32 33 0
29 -31 -32 -33 0
-29 31 32 33 0
-29 31 -32 -33 0
-29 -31 32 -33 0
-29 -31 -32 33 0
-33 -34 0
33 34 0
-21 -34 35 0
21 -35 0
34 -35 0
-36 -2 37 0
36 -37 0
2 -37 0
-22 -6 38 0
22 -38 0
6 -38 0
23 24 -39 0
23 25 -39 0
-24 -25 39 0
24 25 -39 0
-23 -25 39 0
-23 -24 39 0
37 38 39 -40 0
37 38 -39 40 0
37 -38 39 40 0
37 -38 -39 -40 0
-37 38 39 40 0
-37 38 -39 -40 0
-37 -38 39 -40 0
-37 -38 -39 40 0
-11 -16 41 0
11 -41 0
16 -41 0
26 27 -42 0
26 28 -42 0
-27 -28 42 0
27 28 -42 0
-26 -28 42 0
-26 -27 42 0
40 41 42 -43 0
40 41 -42 43 0
40 -41 42 43 0
40 -41 -42 -43 0
-40 41 42 43 0
-40 41 -42 -43 0
-40 -41 42 -43 0
-40 -41 -42 43 0
-4 -30 44 0
4 -44 0
30 -44 0
29 31 -45 0
29 32 -45 0
-31 -32 45 0
31 32 -45 0
-29 -32 45 0
-29 -31 45 0
43 44 45 -46 0
43 44 -45 46 0
43 -44 45 46 0
43 -44 -45 -46 0
-43 44 45 46 0
-43 44 -45 -46 0
-43 -44 45 -46 0
-43 -44 -45 46 0
-1 -47 48 0
1 -48 0
47 -48 0
-49 0
46 48 49 -50 0
46 48 -49 50 0
46 -48 49 50 0
46 -48 -49 -50 0
-46 48 49 50 0
-46 48 -49 -50 0
-46 -48 49 -50 0
-46 -48 -49 50 0
-50 -51 0
50 51 0
-35 -51 52 0
35 -52 0
51 -52 0
-53 -2 54 0
53 -54 0
2 -54 0
-36 -6 55 0
36 -55 0
6 -55 0
37 38 -56 0
37 39 -56 0
-38 -39 56 0
38 39 -56 0
-37 -39 56 0
-37 -38 56 0
54 55 56 -57 0
54 55 -56 57 0
54 -55 56 57 0
54 -55 -56 -57 0
-54 55 56 57 0
-54 55 -56 -57 0
-54 -55 56 -57 0
-54 -55 -56 57 0
-22 -16 58 0
22 -58 0
16 -58 0
40 41 -59 0
40 42 -59 0
-41 -42 59 0
41 42 -59 0
-40 -42 59 0
-40 -41 59 0
57 58 59 -60 0
57 58 -59 60 0
57 -58 59 60 0
57 -58 -59 -60 0
-57 58 59 60 0
-57 58 -59 -60 0
-57 -58 59 -60 0
-57 -58 -59 60 0
-11 -30 61 0
11 -61 0
30 -61 0
43 44 -62 0
43 45 -62 0
-44 -45 62 0
44 45 -62 0
-43 -45 62 0
-43 -44 62 0
60 61 62 -63 0
60 61 -62 63 0
60 -61 62 63 0
60 -61 -62 -63 0
-60 61 62 63 0
-60 61 -62 -63 0
-60 -61 62 -63 0
-60 -61 -62 63 0
-4 -47 64 0
4 -64 0
47 -64 0
46 48 -65 0
46 49 -65 0
-48 -49 65 0
48 49 -65 0
-46 -49 65 0
-46 -48 65 0
63 64 65 -66 0
63 64 -65 66 0
63 -64 65 66 0
63 -64 -65 -66 0
-63 64 65 66 0
-63 64 -65 -66 0
-63 -64 65 -66 0
-63 -64 -65 66 0
-1 -67 68 0
1 -68 0
67 -68 0
-69 0
66 68 69 -70 0
66 68 -69 70 0
66 -68 69 70 0
66 -68 -69 -70 0
-66 68 69 70 0
-66 68 -69 -70 0
-66 -68 69 -70 0
-66 -68 -69 70 0
-52 -70 71 0
52 -71 0
70 -71 0
-72 -2 73 0
72 -73 0
2 -73 0
-53 -6 74 0
53 -74 0
6 -74 0
54 55 -75 0
54 56 -75 0
-55 -56 75 0
55 56 -75 0
-54 -56 75 0
-54 -55 75 0
73 74 75 -76 0
73 74 -75 76 0
73 -74 75 76 0
73 -74 -75 -76 0
-73 74 75 76 0
-73 74 -75 -76 0
-73 -74 75 -76 0
-73 -74 -75 76 0
-36 -16 77 0
36 -77 0
16 -77 0
57 58 -78 0
57 59 -78 0
-58 -59 78 0
58 59 -78 0
-57 -59 78 0
-57 -58 78 0
76 77 78 -79 0
76 77 -78 79 0
76 -77 78 79 0
76 -77 -78 -79 0
-76 77 78 79 0
-76 77 -78 -79 0
-76 -77 78 -79 0
-76 -77 -78 79 0
-22 -30 80 0
22 -80 0
30 -80 0
60 61 -81 0
60 62 -81 0
-61 -62 81 0
61 62 -81 0
-60 -62 81 0
-60 -61 81 0
79 80 81 -82 0
79 80 -81 82 0
79 -80 81 82 0
79 -80 -81 -82 0
-79 80 81 82 0
-79 80 -81 -82 0
-79 -80 81 -82 0
-79 -80 -81 82 0
-11 -47 83 0
11 -83 0
47 -83 0
63 64 -84 0
63 65 -84 0
-64 -65 84 0
64 65 -84 0
-63 -65 84 0
-63 -64 84 0
82 83 84 -85 0
82 83 -84 85 0
82 -83 84 85 0
82 -83 -84 -85 0
-82 83 84 85 0
-82 83 -84 -85 0
-82 -83 84 -85 0
-82 -83 -84 85 0
-4 -67 86 0
4 -86 0
67 -86 0
66 68 -87 0
66 69 -87 0
-68 -69 87 0
68 69 -87 0
-66 -69 87 0
-66 -68 87 0
85 86 87 -88 0
85 86 -87 88 0
85 -86 87 88 0
85 -86 -87 -88 0
-85 86 87 88 0
-85 86 -87 -88 0
-85 -86 87 -88 0
-85 -86 -87 88 0
-1 -89 90 0
1 -90 0
89 -90 0
-91 0
88 90 91 -92 0
88 90 -91 92 0
88 -90 91 92 0
88 -90 -91 -92 0
-88 90 91 92 0
-88 90 -91 -92 0
-88 -90 91 -92 0
-88 -90 -91 92 0
-92 -93 0
92 93 0
-71 -93 94 0
71 -94 0
93 -94 0
-95 -2 96 0
95 -96 0
2 -96 0
-72 -6 97 0
72 -97 0
6 -97 0
73 74 -98 0
73 75 -98 0
-74 -75 98 0
74 75 -98 0
-73 -75 98 0
-73 -74 98 0
96 97 98 -99 0
96 97 -98 99 0
96 -97 98 99 0
96 -97 -98 -99 0
-96 97 98 99 0
-96 97 -98 -99 0
-96 -97 98 -99 0
-96 -97 -98 99 0
-53 -16 100 0
53 -100 0
16 -100 0
76 77 -101 0
76 78 -101 0
-77 -78 101 0
77 78 -101 0
-76 -78 101 0
-76 -77 101 0
99 100 101 -102 0
99 100 -101 102 0
99 -100 101 102 0
99 -100 -101 -102 0
-99 100 101 102 0
-99 100 -101 -102 0
-99 -100 101 -102 0
-99 -100 -101 102 0
-36 -30 103 0
36 -103 0
30 -103 0
79 80 -104 0
79 81 -104 0
-80 -81 104 0
80 81 -104 0
-79 -81 104 0
-79 -80 104 0
102 103 104 -105 0
102 103 -104 105 0
102 -103 104 105 0
102 -103 -104 -105 0
-102 103 104 105 0
-102 103 -104 -105 0
-102 -103 104 -105 0
-102 -103 -104 105 0
-22 -47 106 0
22 -106 0
47 -106 0
82 83 -107 0
82 84 -107 0
-83 -84 107 0
83 84 -107 0
-82 -84 107 0
-82 -83 107 0
105 106 107 -108 0
105 106 -107 108 0
105 -106 107 108 0
105 -106 -107 -108 0
-105 106 107 108 0
-105 106 -107 -108 0
-105 -106 107 -108 0
-105 -106 -107 108 0
-11 -67 109 0
11 -109 0
67 -109 0
85 86 -110 0
85 87 -110 0
-86 -87 110 0
86 87 -110 0
-85 -87 110 0
-85 -86 110 0
108 109 110 -111 0
108 109 -110 111 0
108 -109 110 111 0
108 -109 -110 -111 0
-108 109 110 111 0
-108 109 -110 -111 0
-108 -109 110 -111 0
-108 -109 -110 111 0
-4 -89 112 0
4 -112 0
89 -112 0
88 90 -113 0
88 91 -113 0
-90 -91 113 0
90 91 -113 0
-88 -91 113 0
-88 -90 113 0
111 112 113 -114 0
111 112 -113 114 0
111 -112 113 114 0
111 -112 -113 -114 0
-111 112 113 114 0
-111 112 -113 -114 0
-111 -112 113 -114 0
-111 -112 -113 114 0
-1 -115 116 0
1 -116 0
115 -116 0
-117 0
114 116 117 -118 0
114 116 -117 118 0
114 -116 117 118 0
114 -116 -117 -118 0
-114 116 117 118 0
-114 116 -117 -118 0
-114 -116 117 -118 0
-114 -116 -117 118 0
-94 -118 119 0
94 -119 0
118 -119 0
119 0
